\ small 5x5 assignment
Minimize
 obj: 9 x11 + 6 x12 + 3 x13 + 2 x14 + 1 x15 + 3 x21 + 1 x22 + 4 x23 + 6 x24 + 7 x25 + 6 x31 + 5 x32 + 2 x33 + 8 x34 + 3 x35 + 4 x41 + 7 x42 + 6 x43 + 1 x44 + 5 x45 + 2 x51 + 3 x52 + 8 x53 + 4 x54 + 6 x55
Subject To
 r1: x11 + x12 + x13 + x14 + x15 = 1
 r2: x21 + x22 + x23 + x24 + x25 = 1
 r3: x31 + x32 + x33 + x34 + x35 = 1
 r4: x41 + x42 + x43 + x44 + x45 = 1
 r5: x51 + x52 + x53 + x54 + x55 = 1
 c1: x11 + x21 + x31 + x41 + x51 = 1
 c2: x12 + x22 + x32 + x42 + x52 = 1
 c3: x13 + x23 + x33 + x43 + x53 = 1
 c4: x14 + x24 + x34 + x44 + x54 = 1
 c5: x15 + x25 + x35 + x45 + x55 = 1
Binary
 x11 x12 x13 x14 x15 x21 x22 x23 x24 x25 x31 x32 x33 x34 x35 x41 x42 x43 x44 x45 x51 x52 x53 x54 x55
End